NAME : XML100_3172_09
DIMENSION : 101
NB_CLUSTERS : 4
CLUSTERING_ALG : KMedoids
CLUSTERING_PARAMS : k(3)
CLUSTERS
1 0
2 7 8 9 11 12 13 15 21 24 33 37 38 43 44 45 47 48 51 52 55 63 64 65 69 74 76 80 81 86 87 88 93 94 98 100
3 2 3 4 5 6 14 18 20 25 27 29 30 32 34 35 39 40 54 57 58 59 61 62 67 68 70 71 73 77 79 82 83 84 90 92
4 1 10 16 17 19 22 23 26 28 31 36 41 42 46 49 50 53 56 60 66 72 75 78 85 89 91 95 96 97 99
EOF